NAME: cuum90.tsp
TYPE: TSP
COMMENT: User-generated TSP file
DIMENSION: 90
EDGE_WEIGHT_TYPE: EUC_2D
NODE_COORD_SECTION
1 74.0 84.0
2 3.0 80.0
3 33.0 24.0
4 18.0 2.0
5 57.0 33.0
6 34.0 10.0
7 64.0 63.0
8 34.0 71.0
9 39.0 29.0
10 63.0 67.0
11 68.0 41.0
12 41.0 45.0
13 35.0 8.0
14 83.0 31.0
15 30.0 1.0
16 57.0 9.0
17 35.0 37.0
18 28.0 71.0
19 22.0 18.0
20 50.0 54.0
21 40.0 43.0
22 22.0 62.0
23 63.0 80.0
24 75.0 44.0
25 71.0 33.0
26 52.0 18.0
27 43.0 30.0
28 84.0 77.0
29 14.0 8.0
30 68.0 72.0
31 87.0 61.0
32 15.0 37.0
33 7.0 43.0
34 6.0 80.0
35 58.0 72.0
36 6.0 61.0
37 18.0 17.0
38 30.0 51.0
39 64.0 27.0
40 76.0 11.0
41 43.0 88.0
42 79.0 70.0
43 49.0 80.0
44 46.0 79.0
45 34.0 44.0
46 72.0 87.0
47 40.0 5.0
48 28.0 80.0
49 3.0 20.0
50 11.0 8.0
51 29.0 53.0
52 20.0 89.0
53 3.0 60.0
54 8.0 65.0
55 39.0 36.0
56 19.0 61.0
57 32.0 59.0
58 81.0 8.0
59 47.0 32.0
60 35.0 30.0
61 2.0 42.0
62 43.0 47.0
63 53.0 80.0
64 29.0 3.0
65 30.0 24.0
66 65.0 84.0
67 11.0 29.0
68 27.0 89.0
69 46.0 82.0
70 64.0 28.0
71 38.0 53.0
72 10.0 3.0
73 3.0 71.0
74 33.0 30.0
75 72.0 52.0
76 49.0 71.0
77 74.0 26.0
78 40.0 65.0
79 77.0 11.0
80 29.0 18.0
81 63.0 40.0
82 1.0 80.0
83 41.0 74.0
84 51.0 22.0
85 61.0 32.0
86 3.0 56.0
87 21.0 29.0
88 13.0 57.0
89 89.0 47.0
90 35.0 69.0
EOF





